p cnf 83 343
c max 8 9 10 11 17 18 19 20 26 27 28 29 35 36 37 38 44 45 46 47 53 54 55 56 62 63 64 65 71 72 73 74 80 81 82 83 0
c ind 1 2 3 4 5 6 7 12 13 14 15 16 21 22 23 24 25 30 31 32 33 34 39 40 41 42 43 48 49 50 51 52 57 58 59 60 61 66 67 68 69 70 75 76 77 78 79 0
c p complex 2 0.9238795325112867384831361050601117312908172607421875 -0.382683432365089781779232680491986684501171112060546875 0
c p complex -2 1 0 0
c p weight 4 -1 0
c p weight -4 1 0
c p weight 5 0.70710678118654752440084436210485 0
c p weight -5 1 0
c p complex 6 0.70710678118654752440084436210485 0.70710678118654752440084436210485 0
c p complex -6 1 0 0
c p complex 7 0.70710678118654752440084436210485 -0.70710678118654752440084436210485 0
c p complex -7 1 0 0
c p weight 13 -1 0
c p weight -13 1 0
c p weight 14 0.70710678118654752440084436210485 0
c p weight -14 1 0
c p complex 15 0.70710678118654752440084436210485 0.70710678118654752440084436210485 0
c p complex -15 1 0 0
c p complex 16 0.70710678118654752440084436210485 -0.70710678118654752440084436210485 0
c p complex -16 1 0 0
c p weight 22 -1 0
c p weight -22 1 0
c p weight 23 0.70710678118654752440084436210485 0
c p weight -23 1 0
c p complex 24 0.70710678118654752440084436210485 0.70710678118654752440084436210485 0
c p complex -24 1 0 0
c p complex 25 0.70710678118654752440084436210485 -0.70710678118654752440084436210485 0
c p complex -25 1 0 0
c p weight 31 -1 0
c p weight -31 1 0
c p weight 32 0.70710678118654752440084436210485 0
c p weight -32 1 0
c p complex 33 0.70710678118654752440084436210485 0.70710678118654752440084436210485 0
c p complex -33 1 0 0
c p complex 34 0.70710678118654752440084436210485 -0.70710678118654752440084436210485 0
c p complex -34 1 0 0
c p weight 40 -1 0
c p weight -40 1 0
c p weight 41 0.70710678118654752440084436210485 0
c p weight -41 1 0
c p complex 42 0.70710678118654752440084436210485 0.70710678118654752440084436210485 0
c p complex -42 1 0 0
c p complex 43 0.70710678118654752440084436210485 -0.70710678118654752440084436210485 0
c p complex -43 1 0 0
c p weight 49 -1 0
c p weight -49 1 0
c p weight 50 0.70710678118654752440084436210485 0
c p weight -50 1 0
c p complex 51 0.70710678118654752440084436210485 0.70710678118654752440084436210485 0
c p complex -51 1 0 0
c p complex 52 0.70710678118654752440084436210485 -0.70710678118654752440084436210485 0
c p complex -52 1 0 0
c p weight 58 -1 0
c p weight -58 1 0
c p weight 59 0.70710678118654752440084436210485 0
c p weight -59 1 0
c p complex 60 0.70710678118654752440084436210485 0.70710678118654752440084436210485 0
c p complex -60 1 0 0
c p complex 61 0.70710678118654752440084436210485 -0.70710678118654752440084436210485 0
c p complex -61 1 0 0
c p weight 67 -1 0
c p weight -67 1 0
c p weight 68 0.70710678118654752440084436210485 0
c p weight -68 1 0
c p complex 69 0.70710678118654752440084436210485 0.70710678118654752440084436210485 0
c p complex -69 1 0 0
c p complex 70 0.70710678118654752440084436210485 -0.70710678118654752440084436210485 0
c p complex -70 1 0 0
c p weight 76 -1 0
c p weight -76 1 0
c p weight 77 0.70710678118654752440084436210485 0
c p weight -77 1 0
c p complex 78 0.70710678118654752440084436210485 0.70710678118654752440084436210485 0
c p complex -78 1 0 0
c p complex 79 0.70710678118654752440084436210485 -0.70710678118654752440084436210485 0
c p complex -79 1 0 0
2 -1 0
-2 1 0
3 -8 -1 0
-3 -8 1 0
-4 -8 0
-5 -8 0
-7 -8 0
-6 -8 0
-4 3 -9 0
-4 -9 1 0
4 -3 -9 -1 0
5 -9 0
-7 -9 0
-6 -9 0
3 -11 -1 0
3 -10 -1 0
-3 -11 1 0
-3 -10 1 0
-4 -11 0
-4 -10 0
-5 -11 0
-5 -10 0
-7 -10 0
-6 -11 0
7 -11 -1 0
6 -10 -1 0
-7 -11 1 0
-6 -10 1 0
8 9 10 11 0
-8 -9 0
-8 -10 0
-8 -11 0
-9 -10 0
-9 -11 0
-10 -11 0
12 -17 -3 0
-12 -17 3 0
-13 -17 0
-14 -17 0
-16 -17 0
-15 -17 0
-13 12 -18 0
-13 -18 3 0
13 -12 -18 -3 0
14 -18 0
-16 -18 0
-15 -18 0
12 -20 -3 0
12 -19 -3 0
-12 -20 3 0
-12 -19 3 0
-13 -20 0
-13 -19 0
-14 -20 0
-14 -19 0
-16 -19 0
-15 -20 0
16 -20 -3 0
15 -19 -3 0
-16 -20 3 0
-15 -19 3 0
17 18 19 20 0
-17 -18 0
-17 -19 0
-17 -20 0
-18 -19 0
-18 -20 0
-19 -20 0
-18 -9 0
-19 -11 0
-20 -10 0
-8 17 0
21 -26 -12 0
-21 -26 12 0
-22 -26 0
-23 -26 0
-25 -26 0
-24 -26 0
-22 21 -27 0
-22 -27 12 0
22 -21 -27 -12 0
23 -27 0
-25 -27 0
-24 -27 0
21 -29 -12 0
21 -28 -12 0
-21 -29 12 0
-21 -28 12 0
-22 -29 0
-22 -28 0
-23 -29 0
-23 -28 0
-25 -28 0
-24 -29 0
25 -29 -12 0
24 -28 -12 0
-25 -29 12 0
-24 -28 12 0
26 27 28 29 0
-26 -27 0
-26 -28 0
-26 -29 0
-27 -28 0
-27 -29 0
-28 -29 0
-27 -18 0
-28 -20 0
-29 -19 0
-17 26 0
30 -35 -21 0
-30 -35 21 0
-31 -35 0
-32 -35 0
-34 -35 0
-33 -35 0
-31 30 -36 0
-31 -36 21 0
31 -30 -36 -21 0
32 -36 0
-34 -36 0
-33 -36 0
30 -38 -21 0
30 -37 -21 0
-30 -38 21 0
-30 -37 21 0
-31 -38 0
-31 -37 0
-32 -38 0
-32 -37 0
-34 -37 0
-33 -38 0
34 -38 -21 0
33 -37 -21 0
-34 -38 21 0
-33 -37 21 0
35 36 37 38 0
-35 -36 0
-35 -37 0
-35 -38 0
-36 -37 0
-36 -38 0
-37 -38 0
-36 -27 0
-37 -29 0
-38 -28 0
-26 35 0
39 -44 -30 0
-39 -44 30 0
-40 -44 0
-41 -44 0
-43 -44 0
-42 -44 0
-40 39 -45 0
-40 -45 30 0
40 -39 -45 -30 0
41 -45 0
-43 -45 0
-42 -45 0
39 -47 -30 0
39 -46 -30 0
-39 -47 30 0
-39 -46 30 0
-40 -47 0
-40 -46 0
-41 -47 0
-41 -46 0
-43 -46 0
-42 -47 0
43 -47 -30 0
42 -46 -30 0
-43 -47 30 0
-42 -46 30 0
44 45 46 47 0
-44 -45 0
-44 -46 0
-44 -47 0
-45 -46 0
-45 -47 0
-46 -47 0
-45 -36 0
-46 -38 0
-47 -37 0
-35 44 0
-46 -37 -28 -19 -10 0
-47 -38 -29 -20 -11 0
48 -53 -39 0
-48 -53 39 0
-49 -53 0
-50 -53 0
-52 -53 0
-51 -53 0
-49 48 -54 0
-49 -54 39 0
49 -48 -54 -39 0
50 -54 0
-52 -54 0
-51 -54 0
48 -56 -39 0
48 -55 -39 0
-48 -56 39 0
-48 -55 39 0
-49 -56 0
-49 -55 0
-50 -56 0
-50 -55 0
-52 -55 0
-51 -56 0
52 -56 -39 0
51 -55 -39 0
-52 -56 39 0
-51 -55 39 0
53 54 55 56 0
-53 -54 0
-53 -55 0
-53 -56 0
-54 -55 0
-54 -56 0
-55 -56 0
-54 -45 0
-55 -47 0
-56 -46 0
-44 53 0
-55 -46 -37 -28 -19 0
-56 -47 -38 -29 -20 0
57 -62 -48 0
-57 -62 48 0
-58 -62 0
-59 -62 0
-61 -62 0
-60 -62 0
-58 57 -63 0
-58 -63 48 0
58 -57 -63 -48 0
59 -63 0
-61 -63 0
-60 -63 0
57 -65 -48 0
57 -64 -48 0
-57 -65 48 0
-57 -64 48 0
-58 -65 0
-58 -64 0
-59 -65 0
-59 -64 0
-61 -64 0
-60 -65 0
61 -65 -48 0
60 -64 -48 0
-61 -65 48 0
-60 -64 48 0
62 63 64 65 0
-62 -63 0
-62 -64 0
-62 -65 0
-63 -64 0
-63 -65 0
-64 -65 0
-63 -54 0
-64 -56 0
-65 -55 0
-53 62 0
-64 -55 -46 -37 -28 0
-65 -56 -47 -38 -29 0
66 -71 -57 0
-66 -71 57 0
-67 -71 0
-68 -71 0
-70 -71 0
-69 -71 0
-67 66 -72 0
-67 -72 57 0
67 -66 -72 -57 0
68 -72 0
-70 -72 0
-69 -72 0
66 -74 -57 0
66 -73 -57 0
-66 -74 57 0
-66 -73 57 0
-67 -74 0
-67 -73 0
-68 -74 0
-68 -73 0
-70 -73 0
-69 -74 0
70 -74 -57 0
69 -73 -57 0
-70 -74 57 0
-69 -73 57 0
71 72 73 74 0
-71 -72 0
-71 -73 0
-71 -74 0
-72 -73 0
-72 -74 0
-73 -74 0
-72 -63 0
-73 -65 0
-74 -64 0
-62 71 0
-73 -64 -55 -46 -37 0
-74 -65 -56 -47 -38 0
75 -80 -66 0
-75 -80 66 0
-76 -80 0
-77 -80 0
-79 -80 0
-78 -80 0
-76 75 -81 0
-76 -81 66 0
76 -75 -81 -66 0
77 -81 0
-79 -81 0
-78 -81 0
75 -83 -66 0
75 -82 -66 0
-75 -83 66 0
-75 -82 66 0
-76 -83 0
-76 -82 0
-77 -83 0
-77 -82 0
-79 -82 0
-78 -83 0
79 -83 -66 0
78 -82 -66 0
-79 -83 66 0
-78 -82 66 0
80 81 82 83 0
-80 -81 0
-80 -82 0
-80 -83 0
-81 -82 0
-81 -83 0
-82 -83 0
-81 -72 0
-82 -74 0
-83 -73 0
-71 80 0
-82 -73 -64 -55 -46 0
-83 -74 -65 -56 -47 0
75 -1 0
-75 1 0
